6 1
7 1
8 1
9 0
10 2
11 4
12 3
13 4
14 2
15 0
16 4
17 1
18 4
5 10
6 11
7 13
8 11
9 13
10 10
11 14
12 13
13 13
14 13
15 14
16 13
17 14
18 14
5 23
6 23
7 21
8 23
9 22
10 23
11 21
12 24
13 24
14 23
15 24
16 24
17 24
18 22
5 31
6 30
7 31
8 32
9 33
10 32
11 31
12 34
13 32
14 34
15 32
16 34
17 33
18 30
5 44
6 43
7 40
8 40
9 42
10 41
11 43
12 42
13 43
14 43
15 44
16 41
17 44
18 44
5 53
6 51
7 54
8 54
9 51
10 53
11 54
12 53
13 54
14 50
15 52
16 53
17 54
18 53
5 60
6 61
7 60
8 62
9 63
10 63
11 63
12 61
13 64
14 60
15 64
16 60
17 62
18 60
5 73
6 73
7 74
8 73
9 72
10 72
11 71
12 72
13 72
14 73
15 74
16 72
17 70
18 71
5 81
6 82
7 80
8 81
9 80
10 83
11 80
12 81
13 82
14 84
15 81
16 84
17 83
18 81
5 94
6 90
7 93
8 94
9 91
10 92
11 92
12 93
13 94
14 91
15 92
16 90
17 93
18 92
5 101
6 102
7 101
8 101
9 101
10 103
11 102
12 100
13 104
14 102
15 102
16 103
17 102
18 103
5 112
6 111
7 112
8 110
9 113
10 110
11 111
12 110
13 112
14 110
15 112
16 110
17 113
18 111
5 121
6 122
7 124
8 124
9 121
10 121
11 122
12 121
13 122
14 120
15 123
16 123
17 120
18 120
5 130
6 133
7 131
8 133
9 133
10 134
11 134
12 132
13 130
14 130
15 131
16 133
17 131
18 130
5 141
6 143
7 143
8 143
9 141
